750
1000
700
700
699
699
699
699
698
698
698
698
697
697
697
695
695
695
694
694
694
694
693
692
692
691
690
686
686
686
685
685
685
684
684
683
683
683
683
683
683
681
680
680
679
678
677
676
676
675
675
675
674
673
673
673
672
671
671
671
670
669
669
667
666
666
665
664
664
664
662
662
660
660
660
658
657
657
656
656
655
654
652
651
648
647
647
645
642
642
641
639
639
639
639
639
638
638
638
637
637
636
635
635
634
634
633
631
630
630
628
628
627
627
627
625
625
624
623
621
619
619
618
617
617
616
614
614
614
613
613
612
612
612
612
611
611
611
610
609
608
608
606
606
605
602
602
602
601
600
600
599
598
598
597
597
597
596
595
595
594
594
594
593
592
592
592
592
592
591
591
590
589
588
588
587
586
586
585
584
583
583
583
582
581
579
578
577
577
577
577
577
576
575
574
574
574
574
574
573
573
573
572
571
571
570
570
567
565
564
563
562
562
561
561
560
560
559
558
557
555
555
555
554
554
554
553
551
551
551
551
550
549
548
547
545
544
544
542
542
541
541
539
539
538
538
537
536
535
535
534
531
531
530
529
529
528
528
526
526
524
524
524
523
523
523
523
519
519
519
518
518
517
517
516
516
515
515
515
513
513
513
512
512
511
510
510
510
509
508
508
507
507
507
506
506
505
504
504
504
504
503
502
501
501
501
500
500
499
499
498
496
494
493
492
491
490
490
490
490
489
488
485
485
485
484
483
483
483
483
483
482
482
478
478
478
478
478
477
477
476
474
474
474
473
472
470
470
469
468
467
466
465
464
463
462
462
461
460
460
459
459
458
458
458
458
457
457
456
455
454
454
452
452
452
451
451
451
448
447
447
447
446
445
445
444
444
444
443
443
442
442
441
441
440
440
438
437
437
436
433
433
432
431
431
431
430
430
429
428
428
427
426
426
426
424
421
421
420
420
419
417
415
414
414
413
412
411
411
411
410
410
409
409
409
406
405
404
403
403
402
402
402
400
398
395
393
393
390
388
388
388
387
387
386
386
385
384
383
381
381
381
381
381
380
379
379
378
378
378
377
377
377
377
375
375
374
373
373
371
370
369
369
367
366
365
365
364
362
362
362
360
359
359
358
358
357
357
356
356
354
354
354
354
354
353
352
352
350
350
349
348
347
346
346
346
346
345
345
344
343
343
343
341
341
340
339
338
338
337
335
335
334
334
334
332
332
332
331
330
330
330
329
329
327
327
327
327
327
326
326
325
325
324
322
322
322
321
321
320
320
320
319
319
318
316
315
315
315
312
312
311
311
310
310
310
308
307
306
306
305
305
304
304
303
303
303
302
302
301
301
300
300
299
299
299
297
297
297
296
296
295
293
293
292
292
292
291
291
291
290
290
290
290
290
289
289
288
286
285
285
284
283
283
282
281
281
281
280
280
280
279
279
279
278
277
277
276
276
276
275
275
274
273
273
272
271
269
268
267
266
265
264
263
263
262
262
262
261
260
260
259
259
258
254
252
252
252
250
250
249
249
248
248
247
247
246
246
245
245
244
243
243
242
242
239
239
238
238
238
238
238
237
237
236
236
235
235
235
235
233
233
231
231
230
230
229
228
227
225
224
223
222
222
221
221
221
221
220
220
220
220
218
218
217
217
217
215
214
214
214
214
214
214
213
213
212
212
211
209
207
207
205
204
203
202
202
201
201
200
200
200
